data/solutions/recovery/degenerate/moderate/flexible/degenerate_moderate_instance36/20.sol
Elapsed time: 27.86
Upper bound: 1410110491.0
Planning weighted value: 38860940998.0
C[0]=1410110491.0
C[1]=1410024753.0
C[2]=1410022020.0
C[3]=1409845750.0
C[4]=0.0
y[0]=1
y[1]=1
y[2]=0
y[3]=0
y[4]=0
y[5]=2
y[6]=0
y[7]=3
y[8]=1
y[9]=0
y[10]=0
y[11]=0
y[12]=0
y[13]=3
y[14]=0
y[15]=3
y[16]=3
y[17]=0
y[18]=1
y[19]=0
y[20]=0
y[21]=2
y[22]=1
y[23]=0
y[24]=0
y[25]=2
y[26]=3
y[27]=0
y[28]=2
y[29]=0
y[30]=3
y[31]=2
y[32]=0
y[33]=2
y[34]=2
y[35]=3
y[36]=1
y[37]=0
y[38]=0
y[39]=1
y[40]=0
y[41]=0
y[42]=0
y[43]=0
y[44]=2
y[45]=3
