data/solutions/recovery/degenerate/moderate/flexible/degenerate_moderate_instance36/20.log

Log started (V12.6.3.0) Sat Apr 21 11:20:52 2018

New value for default parallel thread count: 1

Problem '/tmp/tmpoZyN2t.pyomo.lp' read.
Read time = 0.00 sec. (0.11 ticks)

Problem name         : /tmp/tmpoZyN2t.pyomo.lp
Objective sense      : Minimize
Variables            :     237  [Nneg: 1,  Binary: 230,  General Integer: 6]
Objective nonzeros   :       1
Linear constraints   :     104  [Less: 51,  Equal: 53]
  Nonzeros           :    7882
  RHS nonzeros       :      93

Variables            : Min LB: 0.000000         Max UB: 1.000000       
Objective nonzeros   : Min   : 1.000000         Max   : 1.000000       
Linear constraints   :
  Nonzeros           : Min   : 1.000000         Max   : 2.657465e+08   
  RHS nonzeros       : Min   : 1.000000         Max   : 5.000000       
Tried aggregator 1 time.
MIP Presolve eliminated 49 rows and 48 columns.
Reduced MIP has 55 rows, 189 columns, and 500 nonzeros.
Reduced MIP has 184 binaries, 5 generals, 0 SOSs, and 0 indicators.
Presolve time = 0.00 sec. (1.42 ticks)
Found incumbent of value 3.0018368e+09 after 0.00 sec. (1.67 ticks)
Probing time = 0.00 sec. (0.37 ticks)
Tried aggregator 1 time.
Reduced MIP has 55 rows, 189 columns, and 500 nonzeros.
Reduced MIP has 184 binaries, 5 generals, 0 SOSs, and 0 indicators.
Presolve time = 0.00 sec. (0.31 ticks)
Probing time = 0.00 sec. (0.37 ticks)
Clique table members: 46.
MIP emphasis: balance optimality and feasibility.
MIP search method: dynamic search.
Parallel mode: none, using 1 thread.
Root relaxation solution time = 0.00 sec. (0.72 ticks)

        Nodes                                         Cuts/
   Node  Left     Objective  IInf  Best Integer    Best Bound    ItCnt     Gap

*     0+    0                       3.00184e+09        0.0000           100.00%
      0     0   1.41000e+09    13   3.00184e+09   1.41000e+09      130   53.03%
      0     0   1.41000e+09    13   3.00184e+09      Fract: 1      133   53.03%
*     0+    0                       1.50558e+09   1.41000e+09             6.35%
*     0+    0                       1.48554e+09   1.41000e+09             5.08%
*     0+    0                       1.46252e+09   1.41000e+09             3.59%
*     0+    0                       1.45864e+09   1.41000e+09             3.33%
*     0+    0                       1.45336e+09   1.41000e+09             2.98%
*     0+    0                       1.44706e+09   1.41000e+09             2.56%
      0     2   1.41000e+09    13   1.44706e+09   1.41000e+09      133    2.56%
Elapsed time = 0.02 sec. (9.92 ticks, tree = 0.01 MB, solutions = 7)
*    29    27      integral     0   1.44452e+09   1.41000e+09      202    2.39%
*    30+   26                       1.44297e+09   1.41000e+09             2.28%
*    40+   36                       1.42475e+09   1.41000e+09             1.03%
*   140+   96                       1.41487e+09   1.41000e+09             0.34%
*   180+  109                       1.41487e+09   1.41000e+09             0.34%
*   720+  393                       1.41204e+09   1.41000e+09             0.14%
*  1466+  812                       1.41181e+09   1.41000e+09             0.13%
*  1466+  799                       1.41137e+09   1.41000e+09             0.10%
   1479   810   1.41000e+09     8   1.41137e+09   1.41000e+09     5370    0.10%
   1480   811   1.41000e+09     4   1.41137e+09   1.41000e+09     5371    0.10%
   1481   811   1.41000e+09     5   1.41137e+09   1.41000e+09     5374    0.10%
   1482   812   1.41000e+09     5   1.41137e+09   1.41000e+09     5375    0.10%
   1483   812   1.41000e+09     5   1.41137e+09   1.41000e+09     5376    0.10%
   1484   813   1.41000e+09     7   1.41137e+09   1.41000e+09     5380    0.10%
   1485   814   1.41000e+09     5   1.41137e+09   1.41000e+09     5381    0.10%
   1486   815   1.41000e+09     8   1.41137e+09   1.41000e+09     5386    0.10%
   1487   816   1.41000e+09     7   1.41137e+09   1.41000e+09     5389    0.10%
*  1667+  341                       1.41107e+09   1.41000e+09             0.08%
*  1867+  314                       1.41096e+09   1.41000e+09             0.07%
*  1867+  286                       1.41089e+09   1.41000e+09             0.06%
   3367  1131   1.41000e+09     6   1.41089e+09   1.41000e+09     9301    0.06%
Elapsed time = 1.17 sec. (984.29 ticks, tree = 0.36 MB, solutions = 18)
* 11227+ 3762                       1.41061e+09   1.41000e+09             0.04%
* 11227+ 3760                       1.41052e+09   1.41000e+09             0.04%
* 11227+ 3737                       1.41031e+09   1.41000e+09             0.02%
  11227  3738   1.41000e+09     6   1.41031e+09   1.41000e+09    29572    0.02%
  11228  3737    infeasible         1.41031e+09   1.41000e+09    29574    0.02%
  11229  3738   1.41000e+09     5   1.41031e+09   1.41000e+09    29580    0.02%
  11230  3739   1.41000e+09     5   1.41031e+09   1.41000e+09    29583    0.02%
  11231  3738        cutoff         1.41031e+09   1.41000e+09    29601    0.02%
  11232  3739   1.41000e+09     6   1.41031e+09   1.41000e+09    29603    0.02%
  11233  3738        cutoff         1.41031e+09   1.41000e+09    29611    0.02%
  11234  3737        cutoff         1.41031e+09   1.41000e+09    29616    0.02%
  11235  3736        cutoff         1.41031e+09   1.41000e+09    29617    0.02%
  11236  3735        cutoff         1.41031e+09   1.41000e+09    29621    0.02%
Elapsed time = 2.31 sec. (2004.10 ticks, tree = 1.15 MB, solutions = 21)
  19825  5082   1.41000e+09     6   1.41031e+09   1.41000e+09    55524    0.02%
  19826  5083   1.41000e+09     5   1.41031e+09   1.41000e+09    55525    0.02%
  19827  5082   1.41004e+09    10   1.41031e+09   1.41000e+09    55527    0.02%
  19828  5083   1.41000e+09     5   1.41031e+09   1.41000e+09    55529    0.02%
  19829  5083   1.41000e+09     7   1.41031e+09   1.41000e+09    55531    0.02%
  19830  5084   1.41000e+09     5   1.41031e+09   1.41000e+09    55532    0.02%
  19831  5085   1.41000e+09     8   1.41031e+09   1.41000e+09    55534    0.02%
  19832  5086   1.41000e+09     6   1.41031e+09   1.41000e+09    55535    0.02%
  19833  5087   1.41000e+09     8   1.41031e+09   1.41000e+09    55537    0.02%
  19834  5088   1.41000e+09     8   1.41031e+09   1.41000e+09    55538    0.02%
Elapsed time = 3.30 sec. (2958.14 ticks, tree = 1.62 MB, solutions = 21)
  28265  6307   1.41000e+09     5   1.41031e+09   1.41000e+09    81688    0.02%
  28266  6308   1.41000e+09     5   1.41031e+09   1.41000e+09    81689    0.02%
  28267  6308   1.41000e+09     5   1.41031e+09   1.41000e+09    81690    0.02%
  28268  6309   1.41000e+09     5   1.41031e+09   1.41000e+09    81691    0.02%
  28269  6310   1.41000e+09     7   1.41031e+09   1.41000e+09    81693    0.02%
  28270  6310   1.41000e+09     6   1.41031e+09   1.41000e+09    81701    0.02%
  28271  6309    infeasible         1.41031e+09   1.41000e+09    81710    0.02%
  28272  6308    infeasible         1.41031e+09   1.41000e+09    81714    0.02%
  28273  6309   1.41000e+09     6   1.41031e+09   1.41000e+09    81723    0.02%
  28274  6308        cutoff         1.41031e+09   1.41000e+09    81728    0.02%
Elapsed time = 4.30 sec. (3914.48 ticks, tree = 1.95 MB, solutions = 21)
  36768  6907   1.41000e+09     6   1.41031e+09   1.41000e+09   109379    0.02%
  36769  6906        cutoff         1.41031e+09   1.41000e+09   109382    0.02%
  36770  6907   1.41000e+09     5   1.41031e+09   1.41000e+09   109385    0.02%
  36771  6908   1.41000e+09     5   1.41031e+09   1.41000e+09   109386    0.02%
  36772  6907        cutoff         1.41031e+09   1.41000e+09   109396    0.02%
  36773  6906        cutoff         1.41031e+09   1.41000e+09   109408    0.02%
  36774  6905        cutoff         1.41031e+09   1.41000e+09   109420    0.02%
  36775  6906   1.41000e+09     8   1.41031e+09   1.41000e+09   109426    0.02%
  36776  6907   1.41000e+09     6   1.41031e+09   1.41000e+09   109428    0.02%
  36777  6908   1.41000e+09     6   1.41031e+09   1.41000e+09   109432    0.02%
Elapsed time = 5.30 sec. (4869.57 ticks, tree = 2.12 MB, solutions = 21)
  44963  7445        cutoff         1.41031e+09   1.41000e+09   133200    0.02%
  44964  7446   1.41000e+09     8   1.41031e+09   1.41000e+09   133202    0.02%
  44965  7447   1.41000e+09     6   1.41031e+09   1.41000e+09   133203    0.02%
  44966  7448   1.41000e+09     5   1.41031e+09   1.41000e+09   133204    0.02%
  44967  7449   1.41000e+09     6   1.41031e+09   1.41000e+09   133205    0.02%
  44968  7450   1.41000e+09     8   1.41031e+09   1.41000e+09   133208    0.02%
  44969  7451   1.41000e+09     8   1.41031e+09   1.41000e+09   133212    0.02%
  44970  7452   1.41000e+09     8   1.41031e+09   1.41000e+09   133213    0.02%
  44971  7453   1.41000e+09     8   1.41031e+09   1.41000e+09   133214    0.02%
  44972  7454   1.41000e+09     8   1.41031e+09   1.41000e+09   133215    0.02%
Elapsed time = 6.28 sec. (5825.29 ticks, tree = 2.28 MB, solutions = 21)
  52590  7922    infeasible         1.41031e+09   1.41000e+09   158260    0.02%
  52591  7923   1.41000e+09     6   1.41031e+09   1.41000e+09   158261    0.02%
  52592  7922        cutoff         1.41031e+09   1.41000e+09   158280    0.02%
  52593  7923   1.41000e+09     8   1.41031e+09   1.41000e+09   158290    0.02%
  52594  7924   1.41000e+09     6   1.41031e+09   1.41000e+09   158291    0.02%
  52595  7923        cutoff         1.41031e+09   1.41000e+09   158296    0.02%
  52596  7922        cutoff         1.41031e+09   1.41000e+09   158302    0.02%
  52597  7921    infeasible         1.41031e+09   1.41000e+09   158308    0.02%
  52598  7920    infeasible         1.41031e+09   1.41000e+09   158314    0.02%
  52599  7919    infeasible         1.41031e+09   1.41000e+09   158314    0.02%
Elapsed time = 7.28 sec. (6781.04 ticks, tree = 2.42 MB, solutions = 21)
  60731  8901        cutoff         1.41031e+09   1.41000e+09   183956    0.02%
  60732  8902   1.41000e+09     8   1.41031e+09   1.41000e+09   183960    0.02%
  60733  8903   1.41000e+09     8   1.41031e+09   1.41000e+09   183961    0.02%
  60734  8902    infeasible         1.41031e+09   1.41000e+09   183964    0.02%
  60735  8903   1.41000e+09     6   1.41031e+09   1.41000e+09   183966    0.02%
  60736  8904   1.41000e+09     6   1.41031e+09   1.41000e+09   183967    0.02%
  60737  8905   1.41000e+09     6   1.41031e+09   1.41000e+09   183968    0.02%
  60738  8906   1.41000e+09     6   1.41031e+09   1.41000e+09   183969    0.02%
  60739  8907   1.41000e+09     6   1.41031e+09   1.41000e+09   183970    0.02%
  60740  8908   1.41000e+09     6   1.41031e+09   1.41000e+09   183972    0.02%
Elapsed time = 8.28 sec. (7735.42 ticks, tree = 2.93 MB, solutions = 21)
  69280 10278   1.41000e+09     6   1.41031e+09   1.41000e+09   210464    0.02%
  69281 10279   1.41000e+09     6   1.41031e+09   1.41000e+09   210466    0.02%
  69282 10280   1.41000e+09     6   1.41031e+09   1.41000e+09   210467    0.02%
  69283 10281   1.41000e+09     6   1.41031e+09   1.41000e+09   210469    0.02%
  69284 10282   1.41000e+09     6   1.41031e+09   1.41000e+09   210470    0.02%
  69285 10283   1.41000e+09     6   1.41031e+09   1.41000e+09   210471    0.02%
  69286 10284   1.41000e+09     6   1.41031e+09   1.41000e+09   210472    0.02%
  69287 10285   1.41000e+09     6   1.41031e+09   1.41000e+09   210473    0.02%
  69288 10286   1.41000e+09     6   1.41031e+09   1.41000e+09   210475    0.02%
  69289 10287   1.41000e+09     6   1.41031e+09   1.41000e+09   210476    0.02%
Elapsed time = 9.28 sec. (8689.51 ticks, tree = 3.33 MB, solutions = 21)
  77509 11287        cutoff         1.41031e+09   1.41000e+09   234564    0.02%
  77510 11288   1.41000e+09     8   1.41031e+09   1.41000e+09   234571    0.02%
  77511 11289   1.41000e+09     6   1.41031e+09   1.41000e+09   234572    0.02%
  77512 11288        cutoff         1.41031e+09   1.41000e+09   234575    0.02%
  77513 11289   1.41000e+09     6   1.41031e+09   1.41000e+09   234576    0.02%
  77514 11288        cutoff         1.41031e+09   1.41000e+09   234579    0.02%
  77515 11287        cutoff         1.41031e+09   1.41000e+09   234591    0.02%
  77516 11288   1.41000e+09     6   1.41031e+09   1.41000e+09   234596    0.02%
  77517 11289   1.41000e+09     6   1.41031e+09   1.41000e+09   234600    0.02%
  98913 12835    infeasible         1.41031e+09   1.41000e+09   304786    0.02%
Elapsed time = 13.27 sec. (12504.46 ticks, tree = 4.08 MB, solutions = 21)
 127558 15621   1.41000e+09     5   1.41031e+09   1.41000e+09   400462    0.02%
 127559 15620    infeasible         1.41031e+09   1.41000e+09   400462    0.02%
 127560 15619        cutoff         1.41031e+09   1.41000e+09   400464    0.02%
 127561 15618        cutoff         1.41031e+09   1.41000e+09   400466    0.02%
 127562 15617        cutoff         1.41031e+09   1.41000e+09   400468    0.02%
 127563 15616    infeasible         1.41031e+09   1.41000e+09   400471    0.02%
 127564 15615        cutoff         1.41031e+09   1.41000e+09   400478    0.02%
 127565 15614        cutoff         1.41031e+09   1.41000e+09   400480    0.02%
 127566 15613        cutoff         1.41031e+09   1.41000e+09   400488    0.02%
 127567 15612        cutoff         1.41031e+09   1.41000e+09   400496    0.02%
Elapsed time = 17.26 sec. (16321.09 ticks, tree = 4.88 MB, solutions = 21)
 157517 19413        cutoff         1.41031e+09   1.41000e+09   495741    0.02%
 157518 19412        cutoff         1.41031e+09   1.41000e+09   495746    0.02%
 157519 19411    infeasible         1.41031e+09   1.41000e+09   495746    0.02%
 157520 19410        cutoff         1.41031e+09   1.41000e+09   495753    0.02%
 157521 19409    infeasible         1.41031e+09   1.41000e+09   495753    0.02%
 157522 19408        cutoff         1.41031e+09   1.41000e+09   495759    0.02%
 157523 19407        cutoff         1.41031e+09   1.41000e+09   495766    0.02%
 157524 19406    infeasible         1.41031e+09   1.41000e+09   495766    0.02%
 157525 19405        cutoff         1.41031e+09   1.41000e+09   495775    0.02%
 157526 19404        cutoff         1.41031e+09   1.41000e+09   495780    0.02%
Elapsed time = 21.30 sec. (20137.74 ticks, tree = 6.46 MB, solutions = 21)
 186365 20934    infeasible         1.41031e+09   1.41000e+09   588287    0.02%
 186366 20933    infeasible         1.41031e+09   1.41000e+09   588291    0.02%
 186367 20932    infeasible         1.41031e+09   1.41000e+09   588295    0.02%
 186368 20931        cutoff         1.41031e+09   1.41000e+09   588306    0.02%
 186369 20930    infeasible         1.41031e+09   1.41000e+09   588308    0.02%
 186370 20929        cutoff         1.41031e+09   1.41000e+09   588313    0.02%
 186371 20928        cutoff         1.41031e+09   1.41000e+09   588317    0.02%
 186372 20927        cutoff         1.41031e+09   1.41000e+09   588321    0.02%
 186373 20926    infeasible         1.41031e+09   1.41000e+09   588321    0.02%
 186374 20925        cutoff         1.41031e+09   1.41000e+09   588325    0.02%
Elapsed time = 25.32 sec. (23954.15 ticks, tree = 6.90 MB, solutions = 21)
*204767+22279                       1.41011e+09   1.41000e+09             0.01%

Cover cuts applied:  2
Flow cuts applied:  1
Mixed integer rounding cuts applied:  1

Root node processing (before b&c):
  Real time             =    0.02 sec. (9.95 ticks)
Sequential b&c:
  Real time             =   27.77 sec. (26299.24 ticks)
                          ------------
Total (root+branch&cut) =   27.79 sec. (26309.18 ticks)

Solution pool: 22 solutions saved.

MIP - Integer optimal, tolerance (0.0001/1e-06):  Objective =  1.4101104910e+09
Current MIP best bound =  1.4100007540e+09 (gap = 109737, 0.01%)
Solution time =   27.79 sec.  Iterations = 648402  Nodes = 204767 (22280)
Deterministic time = 26309.18 ticks  (946.78 ticks/sec)


Incumbent solution written to file '/tmp/tmpEovPxu.cplex.sol'.
